
Gurobi 9.0.3 (mac64) logging started Mon Oct 26 19:14:27 2020

Gurobi Optimizer version 9.0.3 build v9.0.3rc0 (mac64)
Optimize a model with 82211 rows, 61207 columns and 305109 nonzeros
Model fingerprint: 0xf68cdc4c
Coefficient statistics:
  Matrix range     [1e+00, 9e+02]
  Objective range  [1e+00, 1e+00]
  Bounds range     [1e+00, 1e+00]
  RHS range        [1e+00, 3e+00]

Concurrent LP optimizer: dual simplex and barrier
Showing barrier log only...

Presolve removed 38 rows and 1 columns
Presolve time: 0.76s
Presolved: 82173 rows, 61206 columns, 304043 nonzeros

Elapsed ordering time = 5s
Elapsed ordering time = 10s
Ordering time: 13.95s

Barrier statistics:
 Dense cols : 14
 AA' NZ     : 3.206e+06
 Factor NZ  : 2.375e+07 (roughly 250 MBytes of memory)
 Factor Ops : 2.635e+10 (roughly 2 seconds per iteration)
 Threads    : 1

                  Objective                Residual
Iter       Primal          Dual         Primal    Dual     Compl     Time
   0   7.26818644e+04 -1.70511900e+05  7.19e+04 3.13e-02  2.24e+01    23s
   1   4.92895886e+04 -1.75301052e+05  3.47e+04 1.55e-01  1.32e+01    29s
   2   3.36821628e+04 -2.00910796e+05  1.81e+04 1.59e-02  4.04e+00    36s
   3   2.39566176e+04 -8.78257757e+04  1.24e+04 3.34e-03  2.11e+00    43s
   4   1.46005099e+03 -1.36549623e+04  3.16e+02 2.06e-11  1.30e-01    51s
   5   8.50997618e+02 -8.02597591e+02  4.52e-12 2.74e-12  1.01e-02    59s
   6   5.20800533e+02 -1.54589633e+02  3.06e-11 4.99e-13  4.13e-03    69s
   7   2.75439109e+02 -3.59748396e+01  5.73e-12 2.48e-14  1.90e-03    77s
   8   1.37997417e+02  3.02176411e+00  1.89e-12 2.89e-15  8.26e-04    87s

Barrier performed 8 iterations in 94.17 seconds
Barrier solve interrupted - model solved by another algorithm


Solved with dual simplex
Solved in 23444 iterations and 94.71 seconds
Optimal objective  6.565135152e+01
